# Solution for model simple-model
# Objective value = -5.0382180583333342e+04
pvPowers[0,0] 0
pvPowers[1,0] 0
pvPowers[2,0] 0
pvPowers[3,0] 0
pvPowers[4,0] 0
pvPowers[5,0] 0
pvPowers[6,0] 0
pvPowers[7,0] 0
pvPowers[8,0] 0.003
pvPowers[9,0] 5.7999999999999996e-02
pvPowers[10,0] 0.138
pvPowers[11,0] 0.184
pvPowers[12,0] 1.7600000000000002e-01
pvPowers[13,0] 0.1
pvPowers[14,0] 0.042
pvPowers[15,0] 1.1000000000000001e-02
pvPowers[16,0] 0
pvPowers[17,0] 0
pvPowers[18,0] 0
pvPowers[19,0] 0
pvPowers[20,0] 0
pvPowers[21,0] 0
pvPowers[22,0] 0
pvPowers[23,0] 0
windPowers[0,0] 0.174
windPowers[1,0] 0.174
windPowers[2,0] 0.18
windPowers[3,0] 0.18
windPowers[4,0] 0.19
windPowers[5,0] 0.195
windPowers[6,0] 0.207
windPowers[7,0] 0.205
windPowers[8,0] 2.3600000000000002e-01
windPowers[9,0] 0.27
windPowers[10,0] 2.2699999999999998e-01
windPowers[11,0] 0.175
windPowers[12,0] 0.185
windPowers[13,0] 0.171
windPowers[14,0] 0.171
windPowers[15,0] 0.228
windPowers[16,0] 0.28
windPowers[17,0] 0.305
windPowers[18,0] 0.33
windPowers[19,0] 3.2299999999999995e-01
windPowers[20,0] 0.302
windPowers[21,0] 2.9100000000000004e-01
windPowers[22,0] 0.268
windPowers[23,0] 0.264
batPowers[0,0] -3
batPowers[1,0] -1.4444444444444442e+00
batPowers[2,0] 0
batPowers[3,0] 3
batPowers[4,0] 2.8888888888888884e+00
batPowers[5,0] 3
batPowers[6,0] 0
batPowers[7,0] 0
batPowers[8,0] -3
batPowers[9,0] 3
batPowers[10,0] -3
batPowers[11,0] 3
batPowers[12,0] -3
batPowers[13,0] -3
batPowers[14,0] 3
batPowers[15,0] -3
batPowers[16,0] -2.8888888888888884e+00
batPowers[17,0] 3
batPowers[18,0] 3
batPowers[19,0] 2.8888888888888884e+00
batPowers[20,0] -3
batPowers[21,0] 3
batPowers[22,0] 0
batPowers[23,0] 3
batEnergys[0,0] 5
batEnergys[1,0] 7.7
batEnergys[2,0] 9
batEnergys[3,0] 9
batEnergys[4,0] 6.3
batEnergys[5,0] 3.7
batEnergys[6,0] 1
batEnergys[7,0] 1
batEnergys[8,0] 1
batEnergys[9,0] 3.7
batEnergys[10,0] 1
batEnergys[11,0] 3.7
batEnergys[12,0] 1
batEnergys[13,0] 3.7
batEnergys[14,0] 6.4
batEnergys[15,0] 3.7
batEnergys[16,0] 6.4
batEnergys[17,0] 9
batEnergys[18,0] 6.3
batEnergys[19,0] 3.5999999999999996e+00
batEnergys[20,0] 1
batEnergys[21,0] 3.7
batEnergys[22,0] 1
batEnergys[23,0] 1
evPowers[0,0] 0
evPowers[1,0] 0
evPowers[2,0] 0
evPowers[3,0] 3
evPowers[4,0] -3
evPowers[5,0] 2.2222222222222223e+00
evPowers[6,0] 0
evPowers[7,0] 0
evPowers[8,0] -2.2222222222222223e+00
evPowers[9,0] 3
evPowers[10,0] 2.8888888888888884e+00
evPowers[11,0] 3
evPowers[12,0] -3
evPowers[13,0] -3
evPowers[14,0] 3
evPowers[15,0] -3
evPowers[16,0] -2.8888888888888884e+00
evPowers[17,0] 3
evPowers[18,0] 3
evPowers[19,0] 2.8888888888888884e+00
evPowers[20,0] -3
evPowers[21,0] 3
evPowers[22,0] 0
evPowers[23,0] 3
evEnergys[0,0] 9
evEnergys[1,0] 9
evEnergys[2,0] 9
evEnergys[3,0] 9
evEnergys[4,0] 6.3
evEnergys[5,0] 9
evEnergys[6,0] 7
evEnergys[7,0] 7
evEnergys[8,0] 7
evEnergys[9,0] 9
evEnergys[10,0] 6.3
evEnergys[11,0] 3.7
evEnergys[12,0] 1
evEnergys[13,0] 3.7
evEnergys[14,0] 6.4
evEnergys[15,0] 3.7
evEnergys[16,0] 6.4
evEnergys[17,0] 9
evEnergys[18,0] 6.3
evEnergys[19,0] 3.5999999999999996e+00
evEnergys[20,0] 1
evEnergys[21,0] 3.7
evEnergys[22,0] 1
evEnergys[23,0] 1
fixedLoads[0,0] 0.47075
fixedLoads[1,0] 0.39
fixedLoads[2,0] 0.56125
fixedLoads[3,0] 0.643
fixedLoads[4,0] 0.632
fixedLoads[5,0] 0.51025
fixedLoads[6,0] 2.5479999999999996e+00
fixedLoads[7,0] 2.1897500000000005e+00
fixedLoads[8,0] 0.889
fixedLoads[9,0] 1.0307499999999998e+00
fixedLoads[10,0] 1.76675
fixedLoads[11,0] 1.8947500000000002e+00
fixedLoads[12,0] 1.70075
fixedLoads[13,0] 1.62275
fixedLoads[14,0] 1.225
fixedLoads[15,0] 1.62125
fixedLoads[16,0] 1.05275
fixedLoads[17,0] 0.627
fixedLoads[18,0] 0.515
fixedLoads[19,0] 0.47625
fixedLoads[20,0] 0.4625
fixedLoads[21,0] 4.7200000000000003e-01
fixedLoads[22,0] 4.7550000000000003e-01
fixedLoads[23,0] 4.0499999999999997e-01
gridPowers[0,0] 3.29675
gridPowers[1,0] -3.3395555555555556e+00
gridPowers[2,0] -4.6187499999999995e+00
gridPowers[3,0] -1.0536999999999999e+01
gridPowers[4,0] -4.4468888888888891e+00
gridPowers[5,0] -9.9069722222222225e+00
gridPowers[6,0] -2.6590000000000003e+00
gridPowers[7,0] -3.0152499999999995e+00
gridPowers[8,0] 5.8722222222222227e+00
gridPowers[9,0] -10.29725
gridPowers[10,0] 1.5128611111111114e+00
gridPowers[11,0] -9.46425
gridPowers[12,0] 7.33975
gridPowers[13,0] 7.35175
gridPowers[14,0] -9.988
gridPowers[15,0] 7.38225
gridPowers[16,0] 6.5505277777777779e+00
gridPowers[17,0] -1.0677999999999999e+01
gridPowers[18,0] -10.815
gridPowers[19,0] -1.0624527777777779e+01
gridPowers[20,0] 1.1605000000000003e+00
gridPowers[21,0] -10.819
gridPowers[22,0] 2.0750000000000002e-01
gridPowers[23,0] -5.859
dieselGenerators[0,0] 0
dieselGenerators[1,0] 5
dieselGenerators[2,0] 5
dieselGenerators[3,0] 5
dieselGenerators[4,0] 5
dieselGenerators[5,0] 5
dieselGenerators[6,0] 5
dieselGenerators[7,0] 5
dieselGenerators[8,0] 0
dieselGenerators[9,0] 5
dieselGenerators[10,0] 0
dieselGenerators[11,0] 5
dieselGenerators[12,0] 0
dieselGenerators[13,0] 0
dieselGenerators[14,0] 5
dieselGenerators[15,0] 0
dieselGenerators[16,0] 0
dieselGenerators[17,0] 5
dieselGenerators[18,0] 5
dieselGenerators[19,0] 5
dieselGenerators[20,0] 5
dieselGenerators[21,0] 5
dieselGenerators[22,0] 0
dieselGenerators[23,0] 0
